k-path with fallback label parsing
2
Line-mode
Reciprocal
  0.0  0.0  0.0  1.0  G
  0.5  0.0  0.0
