VASP-4 style
1.0
  1.0 0.0 0.0
  0.0 1.0 0.0
  0.0 0.0 1.0
  2
Cartesian
  0.0 0.0 0.0
  0.5 0.5 0.5
